g3 2 1 0	# problem balassign0
 160 121 1 0 26	# vars, constraints, objectives, ranges, eqns
 0 0	# nonlinear constraints, objectives
 0 0	# network constraints: nonlinear, linear
 0 0 0	# nonlinear vars in constraints, objectives, both
 0 0 0 1	# linear network variables; functions; arith, flags
 130 30 0 0 0	# discrete variables: binary, integer, nonlinear (b,c,o)
 1435 30	# nonzeros in Jacobian, gradients
 0 0	# max name lengths: constraints, variables
 0 0 0 0 0	# common exprs: b,c,o,c1,o1
C0
n0
C1
n0
C2
n0
C3
n0
C4
n0
C5
n0
C6
n0
C7
n0
C8
n0
C9
n0
C10
n0
C11
n0
C12
n0
C13
n0
C14
n0
C15
n0
C16
n0
C17
n0
C18
n0
C19
n0
C20
n0
C21
n0
C22
n0
C23
n0
C24
n0
C25
n0
C26
n0
C27
n0
C28
n0
C29
n0
C30
n0
C31
n0
C32
n0
C33
n0
C34
n0
C35
n0
C36
n0
C37
n0
C38
n0
C39
n0
C40
n0
C41
n0
C42
n0
C43
n0
C44
n0
C45
n0
C46
n0
C47
n0
C48
n0
C49
n0
C50
n0
C51
n0
C52
n0
C53
n0
C54
n0
C55
n0
C56
n0
C57
n0
C58
n0
C59
n0
C60
n0
C61
n0
C62
n0
C63
n0
C64
n0
C65
n0
C66
n0
C67
n0
C68
n0
C69
n0
C70
n0
C71
n0
C72
n0
C73
n0
C74
n0
C75
n0
C76
n0
C77
n0
C78
n0
C79
n0
C80
n0
C81
n0
C82
n0
C83
n0
C84
n0
C85
n0
C86
n0
C87
n0
C88
n0
C89
n0
C90
n0
C91
n0
C92
n0
C93
n0
C94
n0
C95
n0
C96
n0
C97
n0
C98
n0
C99
n0
C100
n0
C101
n0
C102
n0
C103
n0
C104
n0
C105
n0
C106
n0
C107
n0
C108
n0
C109
n0
C110
n0
C111
n0
C112
n0
C113
n0
C114
n0
C115
n0
C116
n0
C117
n0
C118
n0
C119
n0
C120
n0
O0 0
n0
r
4 1
4 1
4 1
4 1
4 1
4 1
4 1
4 1
4 1
4 1
4 1
4 1
4 1
4 1
4 1
4 1
4 1
4 1
4 1
4 1
4 1
4 1
4 1
4 1
4 1
4 1
1 0
1 0
1 0
1 0
1 0
2 0
2 0
2 0
2 0
2 0
1 0
1 0
1 0
1 0
1 0
1 0
1 0
1 0
1 0
1 0
1 0
1 0
1 0
1 0
1 0
1 0
1 0
1 0
1 0
1 0
1 0
1 0
1 0
1 0
1 0
1 0
1 0
1 0
1 0
1 0
2 0
2 0
2 0
2 0
2 0
2 0
2 0
2 0
2 0
2 0
2 0
2 0
2 0
2 0
2 0
2 0
2 0
2 0
2 0
2 0
2 0
2 0
2 0
2 0
2 0
2 0
2 0
2 0
2 0
2 0
2 0
2 0
2 0
2 0
2 0
2 0
2 0
2 0
2 0
2 0
2 0
2 0
2 0
2 0
2 0
2 0
2 0
2 0
2 0
2 0
2 0
2 0
2 0
2 0
2 0
b
0 0 1
0 0 1
0 0 1
0 0 1
0 0 1
0 0 1
0 0 1
0 0 1
0 0 1
0 0 1
0 0 1
0 0 1
0 0 1
0 0 1
0 0 1
0 0 1
0 0 1
0 0 1
0 0 1
0 0 1
0 0 1
0 0 1
0 0 1
0 0 1
0 0 1
0 0 1
0 0 1
0 0 1
0 0 1
0 0 1
0 0 1
0 0 1
0 0 1
0 0 1
0 0 1
0 0 1
0 0 1
0 0 1
0 0 1
0 0 1
0 0 1
0 0 1
0 0 1
0 0 1
0 0 1
0 0 1
0 0 1
0 0 1
0 0 1
0 0 1
0 0 1
0 0 1
0 0 1
0 0 1
0 0 1
0 0 1
0 0 1
0 0 1
0 0 1
0 0 1
0 0 1
0 0 1
0 0 1
0 0 1
0 0 1
0 0 1
0 0 1
0 0 1
0 0 1
0 0 1
0 0 1
0 0 1
0 0 1
0 0 1
0 0 1
0 0 1
0 0 1
0 0 1
0 0 1
0 0 1
0 0 1
0 0 1
0 0 1
0 0 1
0 0 1
0 0 1
0 0 1
0 0 1
0 0 1
0 0 1
0 0 1
0 0 1
0 0 1
0 0 1
0 0 1
0 0 1
0 0 1
0 0 1
0 0 1
0 0 1
0 0 1
0 0 1
0 0 1
0 0 1
0 0 1
0 0 1
0 0 1
0 0 1
0 0 1
0 0 1
0 0 1
0 0 1
0 0 1
0 0 1
0 0 1
0 0 1
0 0 1
0 0 1
0 0 1
0 0 1
0 0 1
0 0 1
0 0 1
0 0 1
0 0 1
0 0 1
0 0 1
0 0 1
0 0 1
0 0 1
1 5
2 6
1 4
1 0
1 0
1 0
1 1
1 0
1 2
1 0
1 0
1 4
1 0
1 2
1 2
1 0
2 4
2 1
2 1
2 1
2 2
2 1
2 3
2 1
2 1
2 5
2 1
2 3
2 3
2 1
k159
11
22
33
44
55
64
73
82
91
100
111
122
133
144
155
166
177
188
199
210
220
230
240
250
260
270
280
290
300
310
321
332
343
354
365
375
385
395
405
415
425
435
445
455
465
476
487
498
509
520
531
542
553
564
575
586
597
608
619
630
641
652
663
674
685
696
707
718
729
740
749
758
767
776
785
796
807
818
829
840
850
860
870
880
890
899
908
917
926
935
945
955
965
975
985
995
1005
1015
1025
1035
1046
1057
1068
1079
1090
1099
1108
1117
1126
1135
1146
1157
1168
1179
1190
1201
1212
1223
1234
1245
1255
1265
1275
1285
1295
1304
1313
1322
1331
1340
1345
1350
1355
1355
1355
1355
1360
1360
1365
1365
1365
1370
1370
1375
1380
1380
1385
1390
1390
1395
1400
1400
1405
1410
1410
1415
1420
1425
1430
J0 5
0 1
1 1
2 1
3 1
4 1
J1 5
5 1
6 1
7 1
8 1
9 1
J2 5
10 1
11 1
12 1
13 1
14 1
J3 5
15 1
16 1
17 1
18 1
19 1
J4 5
20 1
21 1
22 1
23 1
24 1
J5 5
25 1
26 1
27 1
28 1
29 1
J6 5
30 1
31 1
32 1
33 1
34 1
J7 5
35 1
36 1
37 1
38 1
39 1
J8 5
40 1
41 1
42 1
43 1
44 1
J9 5
45 1
46 1
47 1
48 1
49 1
J10 5
50 1
51 1
52 1
53 1
54 1
J11 5
55 1
56 1
57 1
58 1
59 1
J12 5
60 1
61 1
62 1
63 1
64 1
J13 5
65 1
66 1
67 1
68 1
69 1
J14 5
70 1
71 1
72 1
73 1
74 1
J15 5
75 1
76 1
77 1
78 1
79 1
J16 5
80 1
81 1
82 1
83 1
84 1
J17 5
85 1
86 1
87 1
88 1
89 1
J18 5
90 1
91 1
92 1
93 1
94 1
J19 5
95 1
96 1
97 1
98 1
99 1
J20 5
100 1
101 1
102 1
103 1
104 1
J21 5
105 1
106 1
107 1
108 1
109 1
J22 5
110 1
111 1
112 1
113 1
114 1
J23 5
115 1
116 1
117 1
118 1
119 1
J24 5
120 1
121 1
122 1
123 1
124 1
J25 5
125 1
126 1
127 1
128 1
129 1
J26 27
0 -1
5 -1
10 -1
15 -1
20 -1
25 -1
30 -1
35 -1
40 -1
45 -1
50 -1
55 -1
60 -1
65 -1
70 -1
75 -1
80 -1
85 -1
90 -1
95 -1
100 -1
105 -1
110 -1
115 -1
120 -1
125 -1
130 1
J27 27
1 -1
6 -1
11 -1
16 -1
21 -1
26 -1
31 -1
36 -1
41 -1
46 -1
51 -1
56 -1
61 -1
66 -1
71 -1
76 -1
81 -1
86 -1
91 -1
96 -1
101 -1
106 -1
111 -1
116 -1
121 -1
126 -1
130 1
J28 27
2 -1
7 -1
12 -1
17 -1
22 -1
27 -1
32 -1
37 -1
42 -1
47 -1
52 -1
57 -1
62 -1
67 -1
72 -1
77 -1
82 -1
87 -1
92 -1
97 -1
102 -1
107 -1
112 -1
117 -1
122 -1
127 -1
130 1
J29 27
3 -1
8 -1
13 -1
18 -1
23 -1
28 -1
33 -1
38 -1
43 -1
48 -1
53 -1
58 -1
63 -1
68 -1
73 -1
78 -1
83 -1
88 -1
93 -1
98 -1
103 -1
108 -1
113 -1
118 -1
123 -1
128 -1
130 1
J30 27
4 -1
9 -1
14 -1
19 -1
24 -1
29 -1
34 -1
39 -1
44 -1
49 -1
54 -1
59 -1
64 -1
69 -1
74 -1
79 -1
84 -1
89 -1
94 -1
99 -1
104 -1
109 -1
114 -1
119 -1
124 -1
129 -1
130 1
J31 27
0 -1
5 -1
10 -1
15 -1
20 -1
25 -1
30 -1
35 -1
40 -1
45 -1
50 -1
55 -1
60 -1
65 -1
70 -1
75 -1
80 -1
85 -1
90 -1
95 -1
100 -1
105 -1
110 -1
115 -1
120 -1
125 -1
131 1
J32 27
1 -1
6 -1
11 -1
16 -1
21 -1
26 -1
31 -1
36 -1
41 -1
46 -1
51 -1
56 -1
61 -1
66 -1
71 -1
76 -1
81 -1
86 -1
91 -1
96 -1
101 -1
106 -1
111 -1
116 -1
121 -1
126 -1
131 1
J33 27
2 -1
7 -1
12 -1
17 -1
22 -1
27 -1
32 -1
37 -1
42 -1
47 -1
52 -1
57 -1
62 -1
67 -1
72 -1
77 -1
82 -1
87 -1
92 -1
97 -1
102 -1
107 -1
112 -1
117 -1
122 -1
127 -1
131 1
J34 27
3 -1
8 -1
13 -1
18 -1
23 -1
28 -1
33 -1
38 -1
43 -1
48 -1
53 -1
58 -1
63 -1
68 -1
73 -1
78 -1
83 -1
88 -1
93 -1
98 -1
103 -1
108 -1
113 -1
118 -1
123 -1
128 -1
131 1
J35 27
4 -1
9 -1
14 -1
19 -1
24 -1
29 -1
34 -1
39 -1
44 -1
49 -1
54 -1
59 -1
64 -1
69 -1
74 -1
79 -1
84 -1
89 -1
94 -1
99 -1
104 -1
109 -1
114 -1
119 -1
124 -1
129 -1
131 1
J36 21
0 -1
5 -1
10 -1
15 -1
20 -1
25 -1
30 -1
35 -1
45 -1
50 -1
55 -1
60 -1
65 -1
75 -1
100 -1
105 -1
110 -1
115 -1
120 -1
125 -1
132 1
J37 9
0 -1
10 -1
45 -1
70 -1
75 -1
90 -1
95 -1
100 -1
136 1
J38 15
15 -1
20 -1
25 -1
30 -1
35 -1
40 -1
50 -1
55 -1
60 -1
65 -1
80 -1
110 -1
115 -1
120 -1
138 1
J39 25
0 -1
5 -1
10 -1
15 -1
25 -1
30 -1
40 -1
45 -1
50 -1
55 -1
60 -1
65 -1
70 -1
75 -1
80 -1
85 -1
90 -1
95 -1
100 -1
105 -1
110 -1
115 -1
120 -1
125 -1
141 1
J40 13
0 -1
10 -1
20 -1
30 -1
35 -1
40 -1
45 -1
70 -1
75 -1
85 -1
100 -1
125 -1
143 1
J41 12
5 -1
15 -1
50 -1
55 -1
60 -1
65 -1
80 -1
90 -1
95 -1
110 -1
115 -1
144 1
J42 21
1 -1
6 -1
11 -1
16 -1
21 -1
26 -1
31 -1
36 -1
46 -1
51 -1
56 -1
61 -1
66 -1
76 -1
101 -1
106 -1
111 -1
116 -1
121 -1
126 -1
132 1
J43 9
1 -1
11 -1
46 -1
71 -1
76 -1
91 -1
96 -1
101 -1
136 1
J44 15
16 -1
21 -1
26 -1
31 -1
36 -1
41 -1
51 -1
56 -1
61 -1
66 -1
81 -1
111 -1
116 -1
121 -1
138 1
J45 25
1 -1
6 -1
11 -1
16 -1
26 -1
31 -1
41 -1
46 -1
51 -1
56 -1
61 -1
66 -1
71 -1
76 -1
81 -1
86 -1
91 -1
96 -1
101 -1
106 -1
111 -1
116 -1
121 -1
126 -1
141 1
J46 13
1 -1
11 -1
21 -1
31 -1
36 -1
41 -1
46 -1
71 -1
76 -1
86 -1
101 -1
126 -1
143 1
J47 12
6 -1
16 -1
51 -1
56 -1
61 -1
66 -1
81 -1
91 -1
96 -1
111 -1
116 -1
144 1
J48 21
2 -1
7 -1
12 -1
17 -1
22 -1
27 -1
32 -1
37 -1
47 -1
52 -1
57 -1
62 -1
67 -1
77 -1
102 -1
107 -1
112 -1
117 -1
122 -1
127 -1
132 1
J49 9
2 -1
12 -1
47 -1
72 -1
77 -1
92 -1
97 -1
102 -1
136 1
J50 15
17 -1
22 -1
27 -1
32 -1
37 -1
42 -1
52 -1
57 -1
62 -1
67 -1
82 -1
112 -1
117 -1
122 -1
138 1
J51 25
2 -1
7 -1
12 -1
17 -1
27 -1
32 -1
42 -1
47 -1
52 -1
57 -1
62 -1
67 -1
72 -1
77 -1
82 -1
87 -1
92 -1
97 -1
102 -1
107 -1
112 -1
117 -1
122 -1
127 -1
141 1
J52 13
2 -1
12 -1
22 -1
32 -1
37 -1
42 -1
47 -1
72 -1
77 -1
87 -1
102 -1
127 -1
143 1
J53 12
7 -1
17 -1
52 -1
57 -1
62 -1
67 -1
82 -1
92 -1
97 -1
112 -1
117 -1
144 1
J54 21
3 -1
8 -1
13 -1
18 -1
23 -1
28 -1
33 -1
38 -1
48 -1
53 -1
58 -1
63 -1
68 -1
78 -1
103 -1
108 -1
113 -1
118 -1
123 -1
128 -1
132 1
J55 9
3 -1
13 -1
48 -1
73 -1
78 -1
93 -1
98 -1
103 -1
136 1
J56 15
18 -1
23 -1
28 -1
33 -1
38 -1
43 -1
53 -1
58 -1
63 -1
68 -1
83 -1
113 -1
118 -1
123 -1
138 1
J57 25
3 -1
8 -1
13 -1
18 -1
28 -1
33 -1
43 -1
48 -1
53 -1
58 -1
63 -1
68 -1
73 -1
78 -1
83 -1
88 -1
93 -1
98 -1
103 -1
108 -1
113 -1
118 -1
123 -1
128 -1
141 1
J58 13
3 -1
13 -1
23 -1
33 -1
38 -1
43 -1
48 -1
73 -1
78 -1
88 -1
103 -1
128 -1
143 1
J59 12
8 -1
18 -1
53 -1
58 -1
63 -1
68 -1
83 -1
93 -1
98 -1
113 -1
118 -1
144 1
J60 21
4 -1
9 -1
14 -1
19 -1
24 -1
29 -1
34 -1
39 -1
49 -1
54 -1
59 -1
64 -1
69 -1
79 -1
104 -1
109 -1
114 -1
119 -1
124 -1
129 -1
132 1
J61 9
4 -1
14 -1
49 -1
74 -1
79 -1
94 -1
99 -1
104 -1
136 1
J62 15
19 -1
24 -1
29 -1
34 -1
39 -1
44 -1
54 -1
59 -1
64 -1
69 -1
84 -1
114 -1
119 -1
124 -1
138 1
J63 25
4 -1
9 -1
14 -1
19 -1
29 -1
34 -1
44 -1
49 -1
54 -1
59 -1
64 -1
69 -1
74 -1
79 -1
84 -1
89 -1
94 -1
99 -1
104 -1
109 -1
114 -1
119 -1
124 -1
129 -1
141 1
J64 13
4 -1
14 -1
24 -1
34 -1
39 -1
44 -1
49 -1
74 -1
79 -1
89 -1
104 -1
129 -1
143 1
J65 12
9 -1
19 -1
54 -1
59 -1
64 -1
69 -1
84 -1
94 -1
99 -1
114 -1
119 -1
144 1
J66 21
0 -1
5 -1
10 -1
15 -1
20 -1
25 -1
30 -1
35 -1
45 -1
50 -1
55 -1
60 -1
65 -1
75 -1
100 -1
105 -1
110 -1
115 -1
120 -1
125 -1
146 1
J67 4
40 -1
85 -1
90 -1
147 1
J68 3
80 -1
95 -1
149 1
J69 9
0 -1
10 -1
45 -1
70 -1
75 -1
90 -1
95 -1
100 -1
150 1
J70 15
15 -1
20 -1
25 -1
30 -1
35 -1
40 -1
50 -1
55 -1
60 -1
65 -1
80 -1
110 -1
115 -1
120 -1
152 1
J71 3
85 -1
105 -1
153 1
J72 25
0 -1
5 -1
10 -1
15 -1
25 -1
30 -1
40 -1
45 -1
50 -1
55 -1
60 -1
65 -1
70 -1
75 -1
80 -1
85 -1
90 -1
95 -1
100 -1
105 -1
110 -1
115 -1
120 -1
125 -1
155 1
J73 3
20 -1
35 -1
156 1
J74 13
0 -1
10 -1
20 -1
30 -1
35 -1
40 -1
45 -1
70 -1
75 -1
85 -1
100 -1
125 -1
157 1
J75 12
5 -1
15 -1
50 -1
55 -1
60 -1
65 -1
80 -1
90 -1
95 -1
110 -1
115 -1
158 1
J76 4
25 -1
105 -1
120 -1
159 1
J77 21
1 -1
6 -1
11 -1
16 -1
21 -1
26 -1
31 -1
36 -1
46 -1
51 -1
56 -1
61 -1
66 -1
76 -1
101 -1
106 -1
111 -1
116 -1
121 -1
126 -1
146 1
J78 4
41 -1
86 -1
91 -1
147 1
J79 3
81 -1
96 -1
149 1
J80 9
1 -1
11 -1
46 -1
71 -1
76 -1
91 -1
96 -1
101 -1
150 1
J81 15
16 -1
21 -1
26 -1
31 -1
36 -1
41 -1
51 -1
56 -1
61 -1
66 -1
81 -1
111 -1
116 -1
121 -1
152 1
J82 3
86 -1
106 -1
153 1
J83 25
1 -1
6 -1
11 -1
16 -1
26 -1
31 -1
41 -1
46 -1
51 -1
56 -1
61 -1
66 -1
71 -1
76 -1
81 -1
86 -1
91 -1
96 -1
101 -1
106 -1
111 -1
116 -1
121 -1
126 -1
155 1
J84 3
21 -1
36 -1
156 1
J85 13
1 -1
11 -1
21 -1
31 -1
36 -1
41 -1
46 -1
71 -1
76 -1
86 -1
101 -1
126 -1
157 1
J86 12
6 -1
16 -1
51 -1
56 -1
61 -1
66 -1
81 -1
91 -1
96 -1
111 -1
116 -1
158 1
J87 4
26 -1
106 -1
121 -1
159 1
J88 21
2 -1
7 -1
12 -1
17 -1
22 -1
27 -1
32 -1
37 -1
47 -1
52 -1
57 -1
62 -1
67 -1
77 -1
102 -1
107 -1
112 -1
117 -1
122 -1
127 -1
146 1
J89 4
42 -1
87 -1
92 -1
147 1
J90 3
82 -1
97 -1
149 1
J91 9
2 -1
12 -1
47 -1
72 -1
77 -1
92 -1
97 -1
102 -1
150 1
J92 15
17 -1
22 -1
27 -1
32 -1
37 -1
42 -1
52 -1
57 -1
62 -1
67 -1
82 -1
112 -1
117 -1
122 -1
152 1
J93 3
87 -1
107 -1
153 1
J94 25
2 -1
7 -1
12 -1
17 -1
27 -1
32 -1
42 -1
47 -1
52 -1
57 -1
62 -1
67 -1
72 -1
77 -1
82 -1
87 -1
92 -1
97 -1
102 -1
107 -1
112 -1
117 -1
122 -1
127 -1
155 1
J95 3
22 -1
37 -1
156 1
J96 13
2 -1
12 -1
22 -1
32 -1
37 -1
42 -1
47 -1
72 -1
77 -1
87 -1
102 -1
127 -1
157 1
J97 12
7 -1
17 -1
52 -1
57 -1
62 -1
67 -1
82 -1
92 -1
97 -1
112 -1
117 -1
158 1
J98 4
27 -1
107 -1
122 -1
159 1
J99 21
3 -1
8 -1
13 -1
18 -1
23 -1
28 -1
33 -1
38 -1
48 -1
53 -1
58 -1
63 -1
68 -1
78 -1
103 -1
108 -1
113 -1
118 -1
123 -1
128 -1
146 1
J100 4
43 -1
88 -1
93 -1
147 1
J101 3
83 -1
98 -1
149 1
J102 9
3 -1
13 -1
48 -1
73 -1
78 -1
93 -1
98 -1
103 -1
150 1
J103 15
18 -1
23 -1
28 -1
33 -1
38 -1
43 -1
53 -1
58 -1
63 -1
68 -1
83 -1
113 -1
118 -1
123 -1
152 1
J104 3
88 -1
108 -1
153 1
J105 25
3 -1
8 -1
13 -1
18 -1
28 -1
33 -1
43 -1
48 -1
53 -1
58 -1
63 -1
68 -1
73 -1
78 -1
83 -1
88 -1
93 -1
98 -1
103 -1
108 -1
113 -1
118 -1
123 -1
128 -1
155 1
J106 3
23 -1
38 -1
156 1
J107 13
3 -1
13 -1
23 -1
33 -1
38 -1
43 -1
48 -1
73 -1
78 -1
88 -1
103 -1
128 -1
157 1
J108 12
8 -1
18 -1
53 -1
58 -1
63 -1
68 -1
83 -1
93 -1
98 -1
113 -1
118 -1
158 1
J109 4
28 -1
108 -1
123 -1
159 1
J110 21
4 -1
9 -1
14 -1
19 -1
24 -1
29 -1
34 -1
39 -1
49 -1
54 -1
59 -1
64 -1
69 -1
79 -1
104 -1
109 -1
114 -1
119 -1
124 -1
129 -1
146 1
J111 4
44 -1
89 -1
94 -1
147 1
J112 3
84 -1
99 -1
149 1
J113 9
4 -1
14 -1
49 -1
74 -1
79 -1
94 -1
99 -1
104 -1
150 1
J114 15
19 -1
24 -1
29 -1
34 -1
39 -1
44 -1
54 -1
59 -1
64 -1
69 -1
84 -1
114 -1
119 -1
124 -1
152 1
J115 3
89 -1
109 -1
153 1
J116 25
4 -1
9 -1
14 -1
19 -1
29 -1
34 -1
44 -1
49 -1
54 -1
59 -1
64 -1
69 -1
74 -1
79 -1
84 -1
89 -1
94 -1
99 -1
104 -1
109 -1
114 -1
119 -1
124 -1
129 -1
155 1
J117 3
24 -1
39 -1
156 1
J118 13
4 -1
14 -1
24 -1
34 -1
39 -1
44 -1
49 -1
74 -1
79 -1
89 -1
104 -1
129 -1
157 1
J119 12
9 -1
19 -1
54 -1
59 -1
64 -1
69 -1
84 -1
94 -1
99 -1
114 -1
119 -1
158 1
J120 4
29 -1
109 -1
124 -1
159 1
G0 30
130 -1
131 1
132 -1
133 -1
134 -1
135 -1
136 -1
137 -1
138 -1
139 -1
140 -1
141 -1
142 -1
143 -1
144 -1
145 -1
146 1
147 1
148 1
149 1
150 1
151 1
152 1
153 1
154 1
155 1
156 1
157 1
158 1
159 1
